c read Graph
c width = 67
c time = 49 ms
c width = 10
c time = 78 ms
c width = 9
c time = 102 ms
c width = 8
c time = 1016 ms
c width = 8
c time = 4911 ms
s td 72 9 80
b 1 1 2 11
b 2 2 3 11 12
b 3 8 9 19 20
b 4 3 11 12 21
b 5 8 19 20 30
b 6 51 61 62 72
b 7 60 69 70 79
b 8 51 62 72 73
b 9 60 69 78 79
b 10 3 4 5 14
b 11 3 5 13 14 22 31
b 12 3 13 21 22 31
b 13 3 12 13 21 22
b 14 5 13 14 22 24 31 33
b 15 5 14 22 24 31 33 42
b 16 22 31 32 33 42
b 17 5 14 24 31 33 42 51
b 18 31 41 42 51
b 19 5 14 16 24 25 33 42 51
b 20 5 14 15 16 25
b 21 5 16 24 25 33 34 42 51
b 22 13 22 23 24 33
b 23 5 7 16 25 33 34 42 51
b 24 7 16 25 26 33 34 35 42 51
b 25 7 16 26 33 34 35 42 43 51
b 26 7 16 26 34 35 42 43 44 51
b 27 7 16 26 35 42 43 44 51 52
b 28 7 16 26 35 43 44 51 52 53
b 29 7 16 26 35 44 51 52 53 62
b 30 7 16 26 35 44 51 53 62 73
b 31 7 16 26 35 44 53 62 63 73
b 32 7 16 26 35 44 53 54 63 73
b 33 7 16 26 35 44 45 54 63 73
b 34 7 16 26 35 36 45 54 63 73
b 35 7 16 26 27 36 45 54 63 73
b 36 7 16 18 27 36 45 54 63 73
b 37 7 18 27 36 45 54 63 64 73
b 38 7 18 27 36 45 54 55 64 73
b 39 7 18 27 36 45 46 55 64 73
b 40 7 18 27 36 37 46 55 64 73
b 41 7 18 27 37 46 55 64 73 74
b 42 7 18 27 37 46 55 64 65 74
b 43 7 18 27 37 46 55 56 65 74
b 44 7 18 27 37 46 47 56 65 74
b 45 7 18 27 37 38 47 56 65 74
b 46 7 18 27 29 38 47 56 65 74
b 47 7 18 29 38 40 47 56 65 74
b 48 29 38 40 47 49 56 65 74
b 49 38 40 47 49 56 65 74 76
b 50 65 74 75 76
b 51 38 40 47 49 56 65 67 76
b 52 56 65 66 67 76
b 53 38 40 47 49 56 58 67 76
b 54 40 49 58 67 76 78
b 55 67 76 77 78
b 56 40 49 58 67 68 78
b 57 40 49 58 60 68 78
b 58 49 58 59 60 68 78
b 59 59 60 68 69 78
b 60 40 49 50 60
b 61 38 47 48 49 58
b 62 47 56 57 58 67
b 63 5 6 7 16
b 64 7 16 17 18 27
b 65 7 18 29 30 40
b 66 7 8 18 29 30
b 67 8 18 19 29 30
b 68 18 27 28 29 38
b 69 29 38 39 40 49
b 70 70 79 80
b 71 61 71 72
b 72 9 10 20
1 2
2 4
3 72
3 5
4 13
5 67
6 71
6 8
7 70
7 9
8 30
9 59
10 11
11 14
11 12
12 13
14 22
14 15
15 17
15 16
17 19
17 18
19 21
19 20
21 23
23 63
23 24
24 25
25 26
26 27
27 28
28 29
29 30
30 31
31 32
32 33
33 34
34 35
35 36
36 64
36 37
37 38
38 39
39 40
40 41
41 42
42 43
43 44
44 45
45 46
46 68
46 47
47 65
47 48
48 69
48 49
49 51
49 50
51 53
51 52
53 54
53 61
53 62
54 55
54 56
56 57
57 60
57 58
58 59
65 66
66 67
